%chk=mol.chk
# B3LYP/6-31G(d) opt freq 

Gaussian Input

0 1
H       0.00000000    0.00000000   -2.62704900
H       0.00000000    0.00000000   -1.25723600
S       0.00000000    0.00000000    0.13445800


