%chk=mol.chk
# B3LYP/6-31G(d) opt freq 

Gaussian Input

0 1
C      -0.71237600    0.10807700   -0.47808400
C      -0.61562000    1.48944900    0.06007600
C      -1.20311000   -1.00795500    0.37092600
C       2.49036600   -0.59077700   -0.03971500
C       2.57217100   -0.76449500   -1.28031900
H      -0.72464000   -0.02299300   -1.55429100
H       1.41661100   -0.40069000   -0.54180800
H      -0.01812600    2.13577500   -0.58407900
H      -1.60857900    1.95334800    0.15221100
H      -0.17782500    1.49922100    1.06300800
H      -2.29222300   -0.95280100    0.51393500
H      -0.76001100   -0.97562900    1.37105200
H      -0.98656500   -1.98104200   -0.07166000
H       2.61992900   -0.48948800    1.01854900


