%chk=mol.chk
# B3LYP/6-31G(d) opt freq 

Gaussian Input

0 1
C       2.63536100   -0.57945800    1.09871800
C       3.12073000    0.29278600    2.20947700
N       2.21432200    0.47456200    3.36938200
O       1.21887600   -0.18327800    3.33442600
H       1.56325700    0.04031500    0.56001800
H       3.34009100   -0.65781300    0.27485500
H       2.24645700   -1.54515800    1.41005300
H       3.34653300    1.31326100    1.88282400
H       4.04726700   -0.06859900    2.67685300
C       0.47024400    0.64755700    0.10187200
C      -0.66107700   -0.32684700    0.29806100
C      -2.01177700    0.23217000   -0.11399300
O      -1.99698800    0.51439400   -1.49029800
C      -3.20401500    1.06136600   -1.95772000
C      -3.08129800    1.32507300   -3.44058500
H       0.69850400    0.88057700   -0.93551600
H       0.40047000    1.54689400    0.71427000
H      -0.71952200   -0.61586400    1.35063500
H      -0.47460700   -1.23784100   -0.27678100
H      -2.23186600    1.14725300    0.45681900
H      -2.80476900   -0.49561600    0.11321500
H      -4.03293400    0.36627300   -1.75812700
H      -3.42641700    1.99377400   -1.41834400
H      -2.87500400    0.39869500   -3.97778700
H      -4.00861600    1.75102400   -3.82678400
H      -2.26925900    2.02577900   -3.63811600


