%chk=mol.chk
# B3LYP/6-31G(d) opt freq 

Gaussian Input

0 1
C       2.17765500    2.40782000    1.63202800
C       1.30197700    2.09387800    0.43518900
C       1.48694800    3.08858100   -0.69414200
C      -0.09663800    1.68340200    0.73124900
C      -1.08093600    1.68105800   -0.26429800
C      -2.34334600    1.16201300   -0.03415000
C      -2.67085700    0.63293500    1.20494000
C      -1.72121100    0.65233300    2.21467200
C      -0.45905300    1.17267800    1.98269800
H       2.26697100    1.56177700    2.31448300
H       3.18599200    2.65944500    1.30023900
H       1.78996600    3.25858100    2.20191400
H       1.01726200    4.04935400   -0.45928900
H       2.54980500    3.26779100   -0.86352100
H       1.06839500    2.73594200   -1.63689500
H      -0.85775500    2.07657000   -1.24560800
H      -3.07557600    1.16752700   -0.83228000
H      -3.65525600    0.21993900    1.38371600
H      -1.96253800    0.25596500    3.19329800
H       0.25916000    1.16453700    2.79083300
C      -1.22574900   -3.27407800   -1.67728300
C      -1.36689000   -3.27291000   -0.15261000
C      -0.03658700   -2.99942700    0.55546100
C       0.55126300   -1.70789100    0.02064600
C       1.90973400   -1.23292900    0.52512300
C       2.32569800   -0.21522100   -0.52361800
C       1.53518600   -0.48542400   -1.79847100
C       0.75172400   -1.76669500   -1.49309600
C      -0.56963900   -1.99493600   -2.20598900
H      -0.61465500   -4.13273200   -1.97780600
H      -2.20595100   -3.41355200   -2.13924500
H      -2.07934600   -2.49303400    0.13860600
H      -1.78713000   -4.22473900    0.18056700
H      -0.19081600   -2.94027900    1.63618200
H       0.66105600   -3.82618200    0.37457700
H      -0.17397700   -0.91092200    0.21875700
H       1.86755600   -0.81276100    1.53383100
H       2.61759100   -2.07133700    0.55708700
H       1.82341700    1.00669000   -0.03247300
H       3.38686900   -0.00000200   -0.62126800
H       2.17391600   -0.57786100   -2.67917700
H       0.83351100    0.33204700   -2.00421400
H       1.40723000   -2.62402000   -1.70215700
H      -0.43035700   -2.06108800   -3.28850100
H      -1.22546800   -1.13694500   -2.01653500


