%chk=mol.chk
# B3LYP/6-31G(d) opt freq 

Gaussian Input

0 1
C       1.17995100    1.97983500   -0.55609700
C       0.58727200    1.50661200   -1.76505600
N       0.04778100    1.10581100   -2.69962900
H       0.31228400    1.68555000    0.40015500
H       2.07572300    1.43612800   -0.27232500
H       1.28963900    3.05992100   -0.51650700
C      -0.61305900    1.28564200    1.31315500
C      -0.07543800    0.05621200    1.98483500
S       0.55330500   -1.23815500    0.88121200
C      -0.87251200   -1.55976700   -0.18865000
C      -2.12409200   -2.02154500    0.53787700
H      -1.48020400    1.13202800    0.67416600
H      -0.72984100    2.14894600    1.96553600
H      -0.83955200   -0.37350800    2.64046500
H       0.77562800    0.30443200    2.62106000
H      -1.06922900   -0.68305700   -0.80689900
H      -0.51178700   -2.33660500   -0.86442600
H      -2.51876400   -1.24249200    1.19290800
H      -2.90587700   -2.26781600   -0.18340400
H      -1.92245400   -2.90465800    1.14524400


